Route #1: 0 68 6 33 16 3 40 12 0
Route #2: 0 39 9 25 55 18 50 32 0
Route #3: 0 44 24 49 23 41 42 62 1 63 0
Route #4: 0 43 64 61 28 47 5 0
Route #5: 0 2 30 48 45 27 13 8 0
Route #6: 0 67 34 46 19 29 4 0
Route #7: 0 21 36 37 15 57 20 60 69 22 0
Route #8: 0 56 51 17 26 7 14 35 0
Route #9: 0 53 11 38 10 58 0
Route #10: 0 52 54 59 66 65 31 0
Cost 1035:
